n = 15;
m = 44;

max_len = 7;
word_lens = [ 4, 4, 4, 4, 4, 4, 4, 4, 5, 5, 5, 5, 5, 5, 5, 5, 5, 5, 5, 5, 6, 6, 6, 6, 6, 6, 6, 6, 6, 6, 6, 6, 6, 7, 7, 7, 7, 7, 7, 7, 7, 7, 7, 7 ];
words = [| B, I, G, L, E, E, E | N, O, U, N, E, E, E | M, D, B, U, E, E, E | N, W, K, O, E, E, E | D, R, N, E, E, E, E | O, O, G, N, E, E, E | L, F, O, O, E, E, E | D, T, F, A, E, E, E | N, A, I, N, E, E, E | Y, V, A, S, V, E, E | Y, S, L, L, I, E, E | T, O, D, I, I, E, E | A, A, N, P, G, E, E | O, M, N, R, O, E, E | T, A, L, O, P, E, E | H, O, Y, K, E, E, E | H, F, S, Y, I, E, E | T, R, E, T, I, E, E | U, R, Y, M, K, E, E | C, I, W, A, C, E, E | N, G, A, R, J, O, E | M, S, U, P, T, R, E | S, D, R, B, A, U, E | U, O, S, B, E, T, E | O, R, A, C, H, N, E | U, P, I, T, D, S, E | A, N, E, D, R, D, E | S, I, U, N, E, W, E | E, A, G, W, N, E, E | A, N, R, C, A, E, E | E, T, S, R, E, C, E | S, S, I, O, G, N, E | C, U, O, T, C, L, E | A, P, I, S, O, R, C | E, H, T, W, G, I, Y | E, M, T, E, A, L, H | E, S, B, R, U, O, C | M, N, N, D, U, E, A | U, R, H, T, E, G, Y | U, R, L, I, E, P, E | T, A, F, U, O, U, S | L, I, R, B, I, S, E | S, E, L, U, G, T, S | S, U, O, A, U, V, C |];

pos_var_strat = first_fail;
pos_val_strat = indomain_median;
